48192
000011111011000000111101111110
18 6 21 24 24 25 21 27 27 28 4 19 20 23 11 18 8 20 18 27 27 24 5 24 10 25 24 28 19 21 28 26 26 21 11 6 19 8 24 21 18 26 6 26 8 19 10 21 19 20 18 21 27 21 20 6 25 26 25 25 26 10 7 8 10 11 23 26 6 25 7 6 19 19 23 19 10 23 8 23 23 28 26 25 4 20 6 5 27 7 18 6 25 25 5 23 11 28 5 28 19 24 11 7 4 28 4 27 18 20 4 4 18 19 28 8 11 7 4 23 8 11 27 6 4 21 24 11 26 19 27 24 25 8 5 6 5 8 28 10 6 28 11 11 25 5 27 21 18 25 24 10 23 23 10 11 5 21 8 20 20 5 20 23 5 28 5 4 8 21 5 20 27 10 26 21 27 10 4 20 5 24 10 11 11 8 28 23 28 24 23 21 6 4 7 26 7 21 20 19 